p cnf 27 13
14 -18 -26 -11 18 -13 4 -27 9 16 -26 -22 23 -9 13 -14 -22 0
14 -5 -9 -16 7 -14 -7 -16 -24 4 7 0
-18 7 27 -12 1 -22 0
4 26 22 26 -9 -20 16 17 14 -1 24 22 -10 2 17 5 4 -24 -10 -11 8 -10 1 13 0
12 23 10 7 -1 7 -2 6 -13 -25 4 -4 -8 -6 10 -17 0
-8 13 -7 -16 -19 -17 -18 -10 0
14 1 -14 14 -18 -22 12 -13 13 13 14 -4 18 17 14 -12 -11 6 -25 25 -23 11 -8 22 -13 21 0
13 25 -17 0
-19 27 20 8 -5 -19 9 -17 20 0
27 -6 -1 -4 -15 -20 -25 -16 -14 0
22 19 -2 1 21 0
3 -27 25 -13 19 -3 -18 7 2 4 18 -12 25 0
-1 8 -12 -14 -22 5 -18 -17 9 7 2 13 -10 3 17 22 16 8 22 -11 -14 -18 4 -19 0